; benchmark generated from python API
(set-info :status unknown)
(declare-fun a0_rs2_0 () Real)
(declare-fun a0_rf2_0 () Real)
(declare-fun a0_rs1_0 () Real)
(declare-fun a0_rf1_0 () Real)
(declare-fun a0_bs2_0 () Real)
(declare-fun a0_bf2_0 () Real)
(declare-fun a0_bs1_0 () Real)
(declare-fun a0_bf1_0 () Real)
(declare-fun a0_rs2_1 () Real)
(declare-fun a0_rf2_1 () Real)
(declare-fun a0_rs1_1 () Real)
(declare-fun a0_rf1_1 () Real)
(declare-fun a0_bs2_1 () Real)
(declare-fun a0_bf2_1 () Real)
(declare-fun a0_bs1_1 () Real)
(declare-fun a0_bf1_1 () Real)
(declare-fun a1_rs2_0 () Real)
(declare-fun a1_rf2_0 () Real)
(declare-fun a1_rs1_0 () Real)
(declare-fun a1_rf1_0 () Real)
(declare-fun a1_bs2_0 () Real)
(declare-fun a1_bf2_0 () Real)
(declare-fun a1_bs1_0 () Real)
(declare-fun a1_bf1_0 () Real)
(declare-fun a1_rs2_1 () Real)
(declare-fun a1_rf2_1 () Real)
(declare-fun a1_rs1_1 () Real)
(declare-fun a1_rf1_1 () Real)
(declare-fun a1_bs2_1 () Real)
(declare-fun a1_bf2_1 () Real)
(declare-fun a1_bs1_1 () Real)
(declare-fun a1_bf1_1 () Real)
(declare-fun a2_rs2_0 () Real)
(declare-fun a2_rf2_0 () Real)
(declare-fun a2_rs1_0 () Real)
(declare-fun a2_rf1_0 () Real)
(declare-fun a2_bs2_0 () Real)
(declare-fun a2_bf2_0 () Real)
(declare-fun a2_bs1_0 () Real)
(declare-fun a2_bf1_0 () Real)
(declare-fun a2_rs2_1 () Real)
(declare-fun a2_rf2_1 () Real)
(declare-fun a2_rs1_1 () Real)
(declare-fun a2_rf1_1 () Real)
(declare-fun a2_bs2_1 () Real)
(declare-fun a2_bf2_1 () Real)
(declare-fun a2_bs1_1 () Real)
(declare-fun a2_bf1_1 () Real)
(declare-fun a0_ds1_0 () Real)
(declare-fun a0_ds2_0 () Real)
(declare-fun a1_ds1_0 () Real)
(declare-fun a1_ds2_0 () Real)
(declare-fun a2_ds1_0 () Real)
(declare-fun a2_ds2_0 () Real)
(declare-fun a0_df1_0 () Real)
(declare-fun a0_df2_0 () Real)
(declare-fun a0_ds1_1 () Real)
(declare-fun a0_ds2_1 () Real)
(declare-fun a0_df1_1 () Real)
(declare-fun a0_df2_1 () Real)
(declare-fun a1_df1_0 () Real)
(declare-fun a1_df2_0 () Real)
(declare-fun a1_ds1_1 () Real)
(declare-fun a1_ds2_1 () Real)
(declare-fun a1_df1_1 () Real)
(declare-fun a1_df2_1 () Real)
(declare-fun a2_df1_0 () Real)
(declare-fun a2_df2_0 () Real)
(declare-fun a2_ds1_1 () Real)
(declare-fun a2_ds2_1 () Real)
(declare-fun a2_df1_1 () Real)
(declare-fun a2_df2_1 () Real)
(declare-fun a2_L () Real)
(declare-fun a1_L () Real)
(declare-fun a0_L () Real)
(declare-fun a2_p1_1 () Real)
(declare-fun a2_p1_0 () Real)
(declare-fun a1_p1_1 () Real)
(declare-fun a1_p1_0 () Real)
(declare-fun a0_p1_1 () Real)
(declare-fun a0_p1_0 () Real)
(declare-fun a0_p2_0 () Real)
(declare-fun a0_p2_1 () Real)
(declare-fun a1_p2_0 () Real)
(declare-fun a1_p2_1 () Real)
(declare-fun a2_p2_0 () Real)
(declare-fun a2_p2_1 () Real)
(assert
 (let ((?x93 (- a0_rf2_0 a0_rs2_0)))
 (let ((?x92 (- a0_rf1_0 a0_rs1_0)))
 (= ?x92 ?x93))))
(assert
 (let ((?x125 (- a0_bf2_0 a0_bs2_0)))
 (let ((?x122 (- a0_bf1_0 a0_bs1_0)))
 (= ?x122 ?x125))))
(assert
 (let ((?x137 (- a0_rf2_1 a0_rs2_1)))
 (let ((?x134 (- a0_rf1_1 a0_rs1_1)))
 (= ?x134 ?x137))))
(assert
 (= (- a0_bf1_1 a0_bs1_1) (- a0_bf2_1 a0_bs2_1)))
(assert
 (let ((?x161 (- a1_rf2_0 a1_rs2_0)))
 (let ((?x158 (- a1_rf1_0 a1_rs1_0)))
 (= ?x158 ?x161))))
(assert
 (let ((?x173 (- a1_bf2_0 a1_bs2_0)))
 (let ((?x170 (- a1_bf1_0 a1_bs1_0)))
 (= ?x170 ?x173))))
(assert
 (let ((?x185 (- a1_rf2_1 a1_rs2_1)))
 (let ((?x182 (- a1_rf1_1 a1_rs1_1)))
 (= ?x182 ?x185))))
(assert
 (= (- a1_bf1_1 a1_bs1_1) (- a1_bf2_1 a1_bs2_1)))
(assert
 (let ((?x209 (- a2_rf2_0 a2_rs2_0)))
 (let ((?x206 (- a2_rf1_0 a2_rs1_0)))
 (= ?x206 ?x209))))
(assert
 (let ((?x221 (- a2_bf2_0 a2_bs2_0)))
 (let ((?x218 (- a2_bf1_0 a2_bs1_0)))
 (= ?x218 ?x221))))
(assert
 (let ((?x233 (- a2_rf2_1 a2_rs2_1)))
 (let ((?x230 (- a2_rf1_1 a2_rs1_1)))
 (= ?x230 ?x233))))
(assert
 (= (- a2_bf1_1 a2_bs1_1) (- a2_bf2_1 a2_bs2_1)))
(assert
 (= a0_ds1_0 0.0))
(assert
 (= a0_ds2_0 a0_ds1_0))
(assert
 (= a1_ds1_0 0.0))
(assert
 (= a1_ds2_0 a1_ds1_0))
(assert
 (= a2_ds1_0 0.0))
(assert
 (= a2_ds2_0 a2_ds1_0))
(assert
 (or (= a0_rs1_0 0.0) (= a1_rs1_0 0.0) (= a2_rs1_0 0.0)))
(assert
 (= a0_df1_0 a0_rs1_0))
(assert
 (= a0_rf1_0 a0_bs1_0))
(assert
 (= a0_df2_0 a0_rs2_0))
(assert
 (= a0_rf2_0 a0_bs2_0))
(assert
 (= a0_bf1_0 a0_ds1_1))
(assert
 (= a0_bf2_0 a0_ds2_1))
(assert
 (= a0_df1_1 a0_rs1_1))
(assert
 (= a0_rf1_1 a0_bs1_1))
(assert
 (= a0_df2_1 a0_rs2_1))
(assert
 (= a0_rf2_1 a0_bs2_1))
(assert
 (= a1_df1_0 a1_rs1_0))
(assert
 (= a1_rf1_0 a1_bs1_0))
(assert
 (= a1_df2_0 a1_rs2_0))
(assert
 (= a1_rf2_0 a1_bs2_0))
(assert
 (= a1_bf1_0 a1_ds1_1))
(assert
 (= a1_bf2_0 a1_ds2_1))
(assert
 (= a1_df1_1 a1_rs1_1))
(assert
 (= a1_rf1_1 a1_bs1_1))
(assert
 (= a1_df2_1 a1_rs2_1))
(assert
 (= a1_rf2_1 a1_bs2_1))
(assert
 (= a2_df1_0 a2_rs1_0))
(assert
 (= a2_rf1_0 a2_bs1_0))
(assert
 (= a2_df2_0 a2_rs2_0))
(assert
 (= a2_rf2_0 a2_bs2_0))
(assert
 (= a2_bf1_0 a2_ds1_1))
(assert
 (= a2_bf2_0 a2_ds2_1))
(assert
 (= a2_df1_1 a2_rs1_1))
(assert
 (= a2_rf1_1 a2_bs1_1))
(assert
 (= a2_df2_1 a2_rs2_1))
(assert
 (= a2_rf2_1 a2_bs2_1))
(assert
 (and (= (+ (- a0_rf1_0 a0_rs1_0) (- a0_rf1_1 a0_rs1_1)) a0_L) (= (+ (- a1_rf1_0 a1_rs1_0) (- a1_rf1_1 a1_rs1_1)) a1_L) (= (+ (- a2_rf1_0 a2_rs1_0) (- a2_rf1_1 a2_rs1_1)) a2_L)))
(assert
 (and (= (+ (- a0_rf2_0 a0_rs2_0) (- a0_rf2_1 a0_rs2_1)) a0_L) (= (+ (- a1_rf2_0 a1_rs2_0) (- a1_rf2_1 a1_rs2_1)) a1_L) (= (+ (- a2_rf2_0 a2_rs2_0) (- a2_rf2_1 a2_rs2_1)) a2_L)))
(assert
 (and (> a0_p1_0 0.0) (> a0_p1_1 0.0) (> a1_p1_0 0.0) (> a1_p1_1 0.0) (> a2_p1_0 0.0) (> a2_p1_1 0.0)))
(assert
 (let (($x358 (>= (- a2_df2_1 a2_ds2_1) 0.0)))
 (let (($x356 (>= (- a2_df2_0 a2_ds2_0) 0.0)))
 (let (($x354 (>= (- a1_df2_1 a1_ds2_1) 0.0)))
 (let (($x352 (>= (- a1_df2_0 a1_ds2_0) 0.0)))
 (let (($x350 (>= (- a0_df2_1 a0_ds2_1) 0.0)))
 (let (($x348 (>= (- a0_df2_0 a0_ds2_0) 0.0)))
 (and $x348 $x350 $x352 $x354 $x356 $x358))))))))
(assert
 (let (($x407 (>= (- a2_df1_1 a2_ds1_1) 0.0)))
 (let (($x405 (>= (- a2_df1_0 a2_ds1_0) 0.0)))
 (let (($x403 (>= (- a1_df1_1 a1_ds1_1) 0.0)))
 (let (($x401 (>= (- a1_df1_0 a1_ds1_0) 0.0)))
 (let (($x399 (>= (- a0_df1_1 a0_ds1_1) 0.0)))
 (let (($x397 (>= (- a0_df1_0 a0_ds1_0) 0.0)))
 (and $x397 $x399 $x401 $x403 $x405 $x407))))))))
(assert
 (>= (- a0_df1_0 a0_ds1_0) 0.0))
(assert
 (>= (- a0_df2_0 a0_ds2_0) 0.0))
(assert
 (let ((?x92 (- a0_rf1_0 a0_rs1_0)))
 (>= ?x92 1.0)))
(assert
 (let ((?x93 (- a0_rf2_0 a0_rs2_0)))
 (>= ?x93 1.0)))
(assert
 (>= (- a0_df1_1 a0_ds1_1) 0.0))
(assert
 (>= (- a0_df2_1 a0_ds2_1) 0.0))
(assert
 (let ((?x134 (- a0_rf1_1 a0_rs1_1)))
 (>= ?x134 1.0)))
(assert
 (let ((?x137 (- a0_rf2_1 a0_rs2_1)))
 (>= ?x137 1.0)))
(assert
 (let ((?x122 (- a0_bf1_0 a0_bs1_0)))
 (> ?x122 0.0)))
(assert
 (let ((?x125 (- a0_bf2_0 a0_bs2_0)))
 (> ?x125 0.0)))
(assert
 (= a0_bf1_1 a0_bs1_1))
(assert
 (= a0_bf2_1 a0_bs2_1))
(assert
 (>= (- a1_df1_0 a1_ds1_0) 0.0))
(assert
 (>= (- a1_df2_0 a1_ds2_0) 0.0))
(assert
 (let ((?x158 (- a1_rf1_0 a1_rs1_0)))
 (>= ?x158 1.0)))
(assert
 (let ((?x161 (- a1_rf2_0 a1_rs2_0)))
 (>= ?x161 1.0)))
(assert
 (>= (- a1_df1_1 a1_ds1_1) 0.0))
(assert
 (>= (- a1_df2_1 a1_ds2_1) 0.0))
(assert
 (let ((?x182 (- a1_rf1_1 a1_rs1_1)))
 (>= ?x182 1.0)))
(assert
 (let ((?x185 (- a1_rf2_1 a1_rs2_1)))
 (>= ?x185 1.0)))
(assert
 (let ((?x170 (- a1_bf1_0 a1_bs1_0)))
 (> ?x170 0.0)))
(assert
 (let ((?x173 (- a1_bf2_0 a1_bs2_0)))
 (> ?x173 0.0)))
(assert
 (= a1_bf1_1 a1_bs1_1))
(assert
 (= a1_bf2_1 a1_bs2_1))
(assert
 (>= (- a2_df1_0 a2_ds1_0) 0.0))
(assert
 (>= (- a2_df2_0 a2_ds2_0) 0.0))
(assert
 (let ((?x206 (- a2_rf1_0 a2_rs1_0)))
 (>= ?x206 1.0)))
(assert
 (let ((?x209 (- a2_rf2_0 a2_rs2_0)))
 (>= ?x209 1.0)))
(assert
 (>= (- a2_df1_1 a2_ds1_1) 0.0))
(assert
 (>= (- a2_df2_1 a2_ds2_1) 0.0))
(assert
 (let ((?x230 (- a2_rf1_1 a2_rs1_1)))
 (>= ?x230 1.0)))
(assert
 (let ((?x233 (- a2_rf2_1 a2_rs2_1)))
 (>= ?x233 1.0)))
(assert
 (let ((?x218 (- a2_bf1_0 a2_bs1_0)))
 (> ?x218 0.0)))
(assert
 (let ((?x221 (- a2_bf2_0 a2_bs2_0)))
 (> ?x221 0.0)))
(assert
 (= a2_bf1_1 a2_bs1_1))
(assert
 (= a2_bf2_1 a2_bs2_1))
(assert
 (= a0_p1_0 (+ (- a0_rf1_0 a0_rs1_0))))
(assert
 (= a0_p2_0 (+ (- a0_rf2_0 a0_rs2_0))))
(assert
 (let ((?x134 (- a0_rf1_1 a0_rs1_1)))
 (let ((?x92 (- a0_rf1_0 a0_rs1_0)))
 (let ((?x296 (+ ?x92 ?x134)))
 (= a0_p1_1 ?x296)))))
(assert
 (let ((?x137 (- a0_rf2_1 a0_rs2_1)))
 (let ((?x93 (- a0_rf2_0 a0_rs2_0)))
 (let ((?x303 (+ ?x93 ?x137)))
 (= a0_p2_1 ?x303)))))
(assert
 (= a1_p1_0 (+ (- a1_rf1_0 a1_rs1_0))))
(assert
 (= a1_p2_0 (+ (- a1_rf2_0 a1_rs2_0))))
(assert
 (let ((?x182 (- a1_rf1_1 a1_rs1_1)))
 (let ((?x158 (- a1_rf1_0 a1_rs1_0)))
 (let ((?x298 (+ ?x158 ?x182)))
 (= a1_p1_1 ?x298)))))
(assert
 (let ((?x185 (- a1_rf2_1 a1_rs2_1)))
 (let ((?x161 (- a1_rf2_0 a1_rs2_0)))
 (let ((?x311 (+ ?x161 ?x185)))
 (= a1_p2_1 ?x311)))))
(assert
 (= a2_p1_0 (+ (- a2_rf1_0 a2_rs1_0))))
(assert
 (= a2_p2_0 (+ (- a2_rf2_0 a2_rs2_0))))
(assert
 (let ((?x230 (- a2_rf1_1 a2_rs1_1)))
 (let ((?x206 (- a2_rf1_0 a2_rs1_0)))
 (let ((?x300 (+ ?x206 ?x230)))
 (= a2_p1_1 ?x300)))))
(assert
 (let ((?x233 (- a2_rf2_1 a2_rs2_1)))
 (let ((?x209 (- a2_rf2_0 a2_rs2_0)))
 (let ((?x313 (+ ?x209 ?x233)))
 (= a2_p2_1 ?x313)))))
(assert
 (let (($x576 (<= a0_rf1_0 a1_rs1_0)))
 (let (($x575 (<= a1_rf1_0 a0_rs1_0)))
 (or $x575 $x576))))
(assert
 (let (($x584 (<= a0_rf2_0 a1_rs2_0)))
 (let (($x583 (<= a1_rf2_0 a0_rs2_0)))
 (or $x583 $x584))))
(assert
 (= (< a0_rs1_0 a1_rs1_0) (< a0_L a1_L)))
(assert
 (let (($x614 (= a0_bs1_0 a2_rs1_1)))
 (let (($x613 (= a0_bs1_0 a2_rs1_0)))
 (let (($x612 (= a0_bs1_0 a1_rs1_1)))
 (let (($x611 (= a0_bs1_0 a1_rs1_0)))
 (let (($x610 (= a0_bs1_0 a0_rs1_1)))
 (let (($x609 (= a0_bs1_0 a0_rs1_0)))
 (let (($x615 (or $x609 $x610 $x611 $x612 $x613 $x614)))
 (=> (and (<= a1_ds1_0 a0_bs1_0) (<= a0_bs1_0 a1_df1_0)) $x615)))))))))
(assert
 (let (($x625 (<= a0_rf1_0 a1_rs1_1)))
 (let (($x624 (<= a1_rf1_1 a0_rs1_0)))
 (or $x624 $x625))))
(assert
 (let (($x633 (<= a0_rf2_0 a1_rs2_1)))
 (let (($x632 (<= a1_rf2_1 a0_rs2_0)))
 (or $x632 $x633))))
(assert
 (let (($x649 (and (and (<= (- a1_L a1_p1_0) a0_L) (<= a1_rf1_0 a0_rs1_0)) (and (<= a1_bs1_0 a0_rs1_0) (< a0_rs1_0 a1_bf1_0)))))
 (let (($x651 (or (and (<= a0_L (- a1_L a1_p1_0)) (<= a1_rf1_0 a0_rs1_0)) $x649 (> a1_rf1_0 a0_rs1_0))))
 (=> (< a0_rs1_0 a1_rs1_1) (or $x651)))))
(assert
 (let (($x614 (= a0_bs1_0 a2_rs1_1)))
 (let (($x613 (= a0_bs1_0 a2_rs1_0)))
 (let (($x612 (= a0_bs1_0 a1_rs1_1)))
 (let (($x611 (= a0_bs1_0 a1_rs1_0)))
 (let (($x610 (= a0_bs1_0 a0_rs1_1)))
 (let (($x609 (= a0_bs1_0 a0_rs1_0)))
 (let (($x615 (or $x609 $x610 $x611 $x612 $x613 $x614)))
 (=> (and (<= a1_ds1_1 a0_bs1_0) (<= a0_bs1_0 a1_df1_1)) $x615)))))))))
(assert
 (let (($x688 (<= a0_rf1_1 a1_rs1_0)))
 (let (($x687 (<= a1_rf1_0 a0_rs1_1)))
 (or $x687 $x688))))
(assert
 (let (($x696 (<= a0_rf2_1 a1_rs2_0)))
 (let (($x695 (<= a1_rf2_0 a0_rs2_1)))
 (or $x695 $x696))))
(assert
 (let (($x711 (= a0_bs1_1 a2_rs1_1)))
 (let (($x710 (= a0_bs1_1 a2_rs1_0)))
 (let (($x709 (= a0_bs1_1 a1_rs1_1)))
 (let (($x708 (= a0_bs1_1 a1_rs1_0)))
 (let (($x707 (= a0_bs1_1 a0_rs1_1)))
 (let (($x706 (= a0_bs1_1 a0_rs1_0)))
 (let (($x712 (or $x706 $x707 $x708 $x709 $x710 $x711)))
 (=> (and (<= a1_ds1_0 a0_bs1_1) (<= a0_bs1_1 a1_df1_0)) $x712)))))))))
(assert
 (let (($x722 (<= a0_rf1_1 a1_rs1_1)))
 (let (($x721 (<= a1_rf1_1 a0_rs1_1)))
 (or $x721 $x722))))
(assert
 (let (($x730 (<= a0_rf2_1 a1_rs2_1)))
 (let (($x729 (<= a1_rf2_1 a0_rs2_1)))
 (or $x729 $x730))))
(assert
 (let (($x687 (<= a1_rf1_0 a0_rs1_1)))
 (let ((?x738 (- a0_L a0_p1_0)))
 (let ((?x641 (- a1_L a1_p1_0)))
 (let (($x741 (<= ?x641 ?x738)))
 (let (($x746 (and (and $x741 $x687) (and (<= a1_bs1_0 a0_rs1_1) (< a0_rs1_1 a1_bf1_0)))))
 (=> (< a0_rs1_1 a1_rs1_1) (or (or (and (<= ?x738 ?x641) $x687) $x746 (> a1_rf1_0 a0_rs1_1))))))))))
(assert
 (let (($x711 (= a0_bs1_1 a2_rs1_1)))
 (let (($x710 (= a0_bs1_1 a2_rs1_0)))
 (let (($x709 (= a0_bs1_1 a1_rs1_1)))
 (let (($x708 (= a0_bs1_1 a1_rs1_0)))
 (let (($x707 (= a0_bs1_1 a0_rs1_1)))
 (let (($x706 (= a0_bs1_1 a0_rs1_0)))
 (let (($x712 (or $x706 $x707 $x708 $x709 $x710 $x711)))
 (=> (and (<= a1_ds1_1 a0_bs1_1) (<= a0_bs1_1 a1_df1_1)) $x712)))))))))
(assert
 (let (($x785 (<= a0_rf1_0 a2_rs1_0)))
 (let (($x784 (<= a2_rf1_0 a0_rs1_0)))
 (or $x784 $x785))))
(assert
 (let (($x793 (<= a0_rf2_0 a2_rs2_0)))
 (let (($x792 (<= a2_rf2_0 a0_rs2_0)))
 (or $x792 $x793))))
(assert
 (= (< a0_rs1_0 a2_rs1_0) (< a0_L a2_L)))
(assert
 (let (($x614 (= a0_bs1_0 a2_rs1_1)))
 (let (($x613 (= a0_bs1_0 a2_rs1_0)))
 (let (($x612 (= a0_bs1_0 a1_rs1_1)))
 (let (($x611 (= a0_bs1_0 a1_rs1_0)))
 (let (($x610 (= a0_bs1_0 a0_rs1_1)))
 (let (($x609 (= a0_bs1_0 a0_rs1_0)))
 (let (($x615 (or $x609 $x610 $x611 $x612 $x613 $x614)))
 (=> (and (<= a2_ds1_0 a0_bs1_0) (<= a0_bs1_0 a2_df1_0)) $x615)))))))))
(assert
 (let (($x827 (<= a0_rf1_0 a2_rs1_1)))
 (let (($x826 (<= a2_rf1_1 a0_rs1_0)))
 (or $x826 $x827))))
(assert
 (let (($x835 (<= a0_rf2_0 a2_rs2_1)))
 (let (($x834 (<= a2_rf2_1 a0_rs2_0)))
 (or $x834 $x835))))
(assert
 (let (($x851 (and (and (<= (- a2_L a2_p1_0) a0_L) (<= a2_rf1_0 a0_rs1_0)) (and (<= a2_bs1_0 a0_rs1_0) (< a0_rs1_0 a2_bf1_0)))))
 (let (($x853 (or (and (<= a0_L (- a2_L a2_p1_0)) (<= a2_rf1_0 a0_rs1_0)) $x851 (> a2_rf1_0 a0_rs1_0))))
 (=> (< a0_rs1_0 a2_rs1_1) (or $x853)))))
(assert
 (let (($x614 (= a0_bs1_0 a2_rs1_1)))
 (let (($x613 (= a0_bs1_0 a2_rs1_0)))
 (let (($x612 (= a0_bs1_0 a1_rs1_1)))
 (let (($x611 (= a0_bs1_0 a1_rs1_0)))
 (let (($x610 (= a0_bs1_0 a0_rs1_1)))
 (let (($x609 (= a0_bs1_0 a0_rs1_0)))
 (let (($x615 (or $x609 $x610 $x611 $x612 $x613 $x614)))
 (=> (and (<= a2_ds1_1 a0_bs1_0) (<= a0_bs1_0 a2_df1_1)) $x615)))))))))
(assert
 (let (($x890 (<= a0_rf1_1 a2_rs1_0)))
 (let (($x889 (<= a2_rf1_0 a0_rs1_1)))
 (or $x889 $x890))))
(assert
 (let (($x898 (<= a0_rf2_1 a2_rs2_0)))
 (let (($x897 (<= a2_rf2_0 a0_rs2_1)))
 (or $x897 $x898))))
(assert
 (let (($x711 (= a0_bs1_1 a2_rs1_1)))
 (let (($x710 (= a0_bs1_1 a2_rs1_0)))
 (let (($x709 (= a0_bs1_1 a1_rs1_1)))
 (let (($x708 (= a0_bs1_1 a1_rs1_0)))
 (let (($x707 (= a0_bs1_1 a0_rs1_1)))
 (let (($x706 (= a0_bs1_1 a0_rs1_0)))
 (let (($x712 (or $x706 $x707 $x708 $x709 $x710 $x711)))
 (=> (and (<= a2_ds1_0 a0_bs1_1) (<= a0_bs1_1 a2_df1_0)) $x712)))))))))
(assert
 (let (($x917 (<= a0_rf1_1 a2_rs1_1)))
 (let (($x916 (<= a2_rf1_1 a0_rs1_1)))
 (or $x916 $x917))))
(assert
 (let (($x925 (<= a0_rf2_1 a2_rs2_1)))
 (let (($x924 (<= a2_rf2_1 a0_rs2_1)))
 (or $x924 $x925))))
(assert
 (let (($x889 (<= a2_rf1_0 a0_rs1_1)))
 (let ((?x738 (- a0_L a0_p1_0)))
 (let ((?x843 (- a2_L a2_p1_0)))
 (let (($x935 (<= ?x843 ?x738)))
 (let (($x940 (and (and $x935 $x889) (and (<= a2_bs1_0 a0_rs1_1) (< a0_rs1_1 a2_bf1_0)))))
 (=> (< a0_rs1_1 a2_rs1_1) (or (or (and (<= ?x738 ?x843) $x889) $x940 (> a2_rf1_0 a0_rs1_1))))))))))
(assert
 (let (($x711 (= a0_bs1_1 a2_rs1_1)))
 (let (($x710 (= a0_bs1_1 a2_rs1_0)))
 (let (($x709 (= a0_bs1_1 a1_rs1_1)))
 (let (($x708 (= a0_bs1_1 a1_rs1_0)))
 (let (($x707 (= a0_bs1_1 a0_rs1_1)))
 (let (($x706 (= a0_bs1_1 a0_rs1_0)))
 (let (($x712 (or $x706 $x707 $x708 $x709 $x710 $x711)))
 (=> (and (<= a2_ds1_1 a0_bs1_1) (<= a0_bs1_1 a2_df1_1)) $x712)))))))))
(assert
 (let (($x575 (<= a1_rf1_0 a0_rs1_0)))
 (let (($x576 (<= a0_rf1_0 a1_rs1_0)))
 (or $x576 $x575))))
(assert
 (let (($x583 (<= a1_rf2_0 a0_rs2_0)))
 (let (($x584 (<= a0_rf2_0 a1_rs2_0)))
 (or $x584 $x583))))
(assert
 (= (< a1_rs1_0 a0_rs1_0) (< a1_L a0_L)))
(assert
 (let (($x998 (= a1_bs1_0 a2_rs1_1)))
 (let (($x997 (= a1_bs1_0 a2_rs1_0)))
 (let (($x996 (= a1_bs1_0 a1_rs1_1)))
 (let (($x995 (= a1_bs1_0 a1_rs1_0)))
 (let (($x994 (= a1_bs1_0 a0_rs1_1)))
 (let (($x993 (= a1_bs1_0 a0_rs1_0)))
 (let (($x999 (or $x993 $x994 $x995 $x996 $x997 $x998)))
 (=> (and (<= a0_ds1_0 a1_bs1_0) (<= a1_bs1_0 a0_df1_0)) $x999)))))))))
(assert
 (let (($x687 (<= a1_rf1_0 a0_rs1_1)))
 (let (($x688 (<= a0_rf1_1 a1_rs1_0)))
 (or $x688 $x687))))
(assert
 (let (($x695 (<= a1_rf2_0 a0_rs2_1)))
 (let (($x696 (<= a0_rf2_1 a1_rs2_0)))
 (or $x696 $x695))))
(assert
 (let (($x1018 (and (and (<= (- a0_L a0_p1_0) a1_L) (<= a0_rf1_0 a1_rs1_0)) (and (<= a0_bs1_0 a1_rs1_0) (< a1_rs1_0 a0_bf1_0)))))
 (let (($x1020 (or (and (<= a1_L (- a0_L a0_p1_0)) (<= a0_rf1_0 a1_rs1_0)) $x1018 (> a0_rf1_0 a1_rs1_0))))
 (=> (< a1_rs1_0 a0_rs1_1) (or $x1020)))))
(assert
 (let (($x998 (= a1_bs1_0 a2_rs1_1)))
 (let (($x997 (= a1_bs1_0 a2_rs1_0)))
 (let (($x996 (= a1_bs1_0 a1_rs1_1)))
 (let (($x995 (= a1_bs1_0 a1_rs1_0)))
 (let (($x994 (= a1_bs1_0 a0_rs1_1)))
 (let (($x993 (= a1_bs1_0 a0_rs1_0)))
 (let (($x999 (or $x993 $x994 $x995 $x996 $x997 $x998)))
 (=> (and (<= a0_ds1_1 a1_bs1_0) (<= a1_bs1_0 a0_df1_1)) $x999)))))))))
(assert
 (let (($x624 (<= a1_rf1_1 a0_rs1_0)))
 (let (($x625 (<= a0_rf1_0 a1_rs1_1)))
 (or $x625 $x624))))
(assert
 (let (($x632 (<= a1_rf2_1 a0_rs2_0)))
 (let (($x633 (<= a0_rf2_0 a1_rs2_1)))
 (or $x633 $x632))))
(assert
 (let (($x1064 (= a1_bs1_1 a2_rs1_1)))
 (let (($x1063 (= a1_bs1_1 a2_rs1_0)))
 (let (($x1062 (= a1_bs1_1 a1_rs1_1)))
 (let (($x1061 (= a1_bs1_1 a1_rs1_0)))
 (let (($x1060 (= a1_bs1_1 a0_rs1_1)))
 (let (($x1059 (= a1_bs1_1 a0_rs1_0)))
 (let (($x1065 (or $x1059 $x1060 $x1061 $x1062 $x1063 $x1064)))
 (=> (and (<= a0_ds1_0 a1_bs1_1) (<= a1_bs1_1 a0_df1_0)) $x1065)))))))))
(assert
 (let (($x721 (<= a1_rf1_1 a0_rs1_1)))
 (let (($x722 (<= a0_rf1_1 a1_rs1_1)))
 (or $x722 $x721))))
(assert
 (let (($x729 (<= a1_rf2_1 a0_rs2_1)))
 (let (($x730 (<= a0_rf2_1 a1_rs2_1)))
 (or $x730 $x729))))
(assert
 (let (($x625 (<= a0_rf1_0 a1_rs1_1)))
 (let ((?x641 (- a1_L a1_p1_0)))
 (let ((?x738 (- a0_L a0_p1_0)))
 (let (($x739 (<= ?x738 ?x641)))
 (let (($x1082 (and (and $x739 $x625) (and (<= a0_bs1_0 a1_rs1_1) (< a1_rs1_1 a0_bf1_0)))))
 (=> (< a1_rs1_1 a0_rs1_1) (or (or (and (<= ?x641 ?x738) $x625) $x1082 (> a0_rf1_0 a1_rs1_1))))))))))
(assert
 (let (($x1064 (= a1_bs1_1 a2_rs1_1)))
 (let (($x1063 (= a1_bs1_1 a2_rs1_0)))
 (let (($x1062 (= a1_bs1_1 a1_rs1_1)))
 (let (($x1061 (= a1_bs1_1 a1_rs1_0)))
 (let (($x1060 (= a1_bs1_1 a0_rs1_1)))
 (let (($x1059 (= a1_bs1_1 a0_rs1_0)))
 (let (($x1065 (or $x1059 $x1060 $x1061 $x1062 $x1063 $x1064)))
 (=> (and (<= a0_ds1_1 a1_bs1_1) (<= a1_bs1_1 a0_df1_1)) $x1065)))))))))
(assert
 (let (($x1115 (<= a1_rf1_0 a2_rs1_0)))
 (let (($x1114 (<= a2_rf1_0 a1_rs1_0)))
 (or $x1114 $x1115))))
(assert
 (let (($x1123 (<= a1_rf2_0 a2_rs2_0)))
 (let (($x1122 (<= a2_rf2_0 a1_rs2_0)))
 (or $x1122 $x1123))))
(assert
 (= (< a1_rs1_0 a2_rs1_0) (< a1_L a2_L)))
(assert
 (let (($x998 (= a1_bs1_0 a2_rs1_1)))
 (let (($x997 (= a1_bs1_0 a2_rs1_0)))
 (let (($x996 (= a1_bs1_0 a1_rs1_1)))
 (let (($x995 (= a1_bs1_0 a1_rs1_0)))
 (let (($x994 (= a1_bs1_0 a0_rs1_1)))
 (let (($x993 (= a1_bs1_0 a0_rs1_0)))
 (let (($x999 (or $x993 $x994 $x995 $x996 $x997 $x998)))
 (=> (and (<= a2_ds1_0 a1_bs1_0) (<= a1_bs1_0 a2_df1_0)) $x999)))))))))
(assert
 (let (($x1156 (<= a1_rf1_0 a2_rs1_1)))
 (let (($x1155 (<= a2_rf1_1 a1_rs1_0)))
 (or $x1155 $x1156))))
(assert
 (let (($x1164 (<= a1_rf2_0 a2_rs2_1)))
 (let (($x1163 (<= a2_rf2_1 a1_rs2_0)))
 (or $x1163 $x1164))))
(assert
 (let (($x1179 (and (and (<= (- a2_L a2_p1_0) a1_L) (<= a2_rf1_0 a1_rs1_0)) (and (<= a2_bs1_0 a1_rs1_0) (< a1_rs1_0 a2_bf1_0)))))
 (let (($x1181 (or (and (<= a1_L (- a2_L a2_p1_0)) (<= a2_rf1_0 a1_rs1_0)) $x1179 (> a2_rf1_0 a1_rs1_0))))
 (=> (< a1_rs1_0 a2_rs1_1) (or $x1181)))))
(assert
 (let (($x998 (= a1_bs1_0 a2_rs1_1)))
 (let (($x997 (= a1_bs1_0 a2_rs1_0)))
 (let (($x996 (= a1_bs1_0 a1_rs1_1)))
 (let (($x995 (= a1_bs1_0 a1_rs1_0)))
 (let (($x994 (= a1_bs1_0 a0_rs1_1)))
 (let (($x993 (= a1_bs1_0 a0_rs1_0)))
 (let (($x999 (or $x993 $x994 $x995 $x996 $x997 $x998)))
 (=> (and (<= a2_ds1_1 a1_bs1_0) (<= a1_bs1_0 a2_df1_1)) $x999)))))))))
(assert
 (let (($x1216 (<= a1_rf1_1 a2_rs1_0)))
 (let (($x1215 (<= a2_rf1_0 a1_rs1_1)))
 (or $x1215 $x1216))))
(assert
 (let (($x1224 (<= a1_rf2_1 a2_rs2_0)))
 (let (($x1223 (<= a2_rf2_0 a1_rs2_1)))
 (or $x1223 $x1224))))
(assert
 (let (($x1064 (= a1_bs1_1 a2_rs1_1)))
 (let (($x1063 (= a1_bs1_1 a2_rs1_0)))
 (let (($x1062 (= a1_bs1_1 a1_rs1_1)))
 (let (($x1061 (= a1_bs1_1 a1_rs1_0)))
 (let (($x1060 (= a1_bs1_1 a0_rs1_1)))
 (let (($x1059 (= a1_bs1_1 a0_rs1_0)))
 (let (($x1065 (or $x1059 $x1060 $x1061 $x1062 $x1063 $x1064)))
 (=> (and (<= a2_ds1_0 a1_bs1_1) (<= a1_bs1_1 a2_df1_0)) $x1065)))))))))
(assert
 (let (($x1243 (<= a1_rf1_1 a2_rs1_1)))
 (let (($x1242 (<= a2_rf1_1 a1_rs1_1)))
 (or $x1242 $x1243))))
(assert
 (let (($x1251 (<= a1_rf2_1 a2_rs2_1)))
 (let (($x1250 (<= a2_rf2_1 a1_rs2_1)))
 (or $x1250 $x1251))))
(assert
 (let (($x1215 (<= a2_rf1_0 a1_rs1_1)))
 (let ((?x641 (- a1_L a1_p1_0)))
 (let ((?x843 (- a2_L a2_p1_0)))
 (let (($x1261 (<= ?x843 ?x641)))
 (let (($x1266 (and (and $x1261 $x1215) (and (<= a2_bs1_0 a1_rs1_1) (< a1_rs1_1 a2_bf1_0)))))
 (=> (< a1_rs1_1 a2_rs1_1) (or (or (and (<= ?x641 ?x843) $x1215) $x1266 (> a2_rf1_0 a1_rs1_1))))))))))
(assert
 (let (($x1064 (= a1_bs1_1 a2_rs1_1)))
 (let (($x1063 (= a1_bs1_1 a2_rs1_0)))
 (let (($x1062 (= a1_bs1_1 a1_rs1_1)))
 (let (($x1061 (= a1_bs1_1 a1_rs1_0)))
 (let (($x1060 (= a1_bs1_1 a0_rs1_1)))
 (let (($x1059 (= a1_bs1_1 a0_rs1_0)))
 (let (($x1065 (or $x1059 $x1060 $x1061 $x1062 $x1063 $x1064)))
 (=> (and (<= a2_ds1_1 a1_bs1_1) (<= a1_bs1_1 a2_df1_1)) $x1065)))))))))
(assert
 (let (($x784 (<= a2_rf1_0 a0_rs1_0)))
 (let (($x785 (<= a0_rf1_0 a2_rs1_0)))
 (or $x785 $x784))))
(assert
 (let (($x792 (<= a2_rf2_0 a0_rs2_0)))
 (let (($x793 (<= a0_rf2_0 a2_rs2_0)))
 (or $x793 $x792))))
(assert
 (= (< a2_rs1_0 a0_rs1_0) (< a2_L a0_L)))
(assert
 (let (($x1324 (= a2_bs1_0 a2_rs1_1)))
 (let (($x1323 (= a2_bs1_0 a2_rs1_0)))
 (let (($x1322 (= a2_bs1_0 a1_rs1_1)))
 (let (($x1321 (= a2_bs1_0 a1_rs1_0)))
 (let (($x1320 (= a2_bs1_0 a0_rs1_1)))
 (let (($x1319 (= a2_bs1_0 a0_rs1_0)))
 (let (($x1325 (or $x1319 $x1320 $x1321 $x1322 $x1323 $x1324)))
 (=> (and (<= a0_ds1_0 a2_bs1_0) (<= a2_bs1_0 a0_df1_0)) $x1325)))))))))
(assert
 (let (($x889 (<= a2_rf1_0 a0_rs1_1)))
 (let (($x890 (<= a0_rf1_1 a2_rs1_0)))
 (or $x890 $x889))))
(assert
 (let (($x897 (<= a2_rf2_0 a0_rs2_1)))
 (let (($x898 (<= a0_rf2_1 a2_rs2_0)))
 (or $x898 $x897))))
(assert
 (let (($x1344 (and (and (<= (- a0_L a0_p1_0) a2_L) (<= a0_rf1_0 a2_rs1_0)) (and (<= a0_bs1_0 a2_rs1_0) (< a2_rs1_0 a0_bf1_0)))))
 (let (($x1346 (or (and (<= a2_L (- a0_L a0_p1_0)) (<= a0_rf1_0 a2_rs1_0)) $x1344 (> a0_rf1_0 a2_rs1_0))))
 (=> (< a2_rs1_0 a0_rs1_1) (or $x1346)))))
(assert
 (let (($x1324 (= a2_bs1_0 a2_rs1_1)))
 (let (($x1323 (= a2_bs1_0 a2_rs1_0)))
 (let (($x1322 (= a2_bs1_0 a1_rs1_1)))
 (let (($x1321 (= a2_bs1_0 a1_rs1_0)))
 (let (($x1320 (= a2_bs1_0 a0_rs1_1)))
 (let (($x1319 (= a2_bs1_0 a0_rs1_0)))
 (let (($x1325 (or $x1319 $x1320 $x1321 $x1322 $x1323 $x1324)))
 (=> (and (<= a0_ds1_1 a2_bs1_0) (<= a2_bs1_0 a0_df1_1)) $x1325)))))))))
(assert
 (let (($x826 (<= a2_rf1_1 a0_rs1_0)))
 (let (($x827 (<= a0_rf1_0 a2_rs1_1)))
 (or $x827 $x826))))
(assert
 (let (($x834 (<= a2_rf2_1 a0_rs2_0)))
 (let (($x835 (<= a0_rf2_0 a2_rs2_1)))
 (or $x835 $x834))))
(assert
 (let (($x1390 (= a2_bs1_1 a2_rs1_1)))
 (let (($x1389 (= a2_bs1_1 a2_rs1_0)))
 (let (($x1388 (= a2_bs1_1 a1_rs1_1)))
 (let (($x1387 (= a2_bs1_1 a1_rs1_0)))
 (let (($x1386 (= a2_bs1_1 a0_rs1_1)))
 (let (($x1385 (= a2_bs1_1 a0_rs1_0)))
 (let (($x1391 (or $x1385 $x1386 $x1387 $x1388 $x1389 $x1390)))
 (=> (and (<= a0_ds1_0 a2_bs1_1) (<= a2_bs1_1 a0_df1_0)) $x1391)))))))))
(assert
 (let (($x916 (<= a2_rf1_1 a0_rs1_1)))
 (let (($x917 (<= a0_rf1_1 a2_rs1_1)))
 (or $x917 $x916))))
(assert
 (let (($x924 (<= a2_rf2_1 a0_rs2_1)))
 (let (($x925 (<= a0_rf2_1 a2_rs2_1)))
 (or $x925 $x924))))
(assert
 (let (($x827 (<= a0_rf1_0 a2_rs1_1)))
 (let ((?x843 (- a2_L a2_p1_0)))
 (let ((?x738 (- a0_L a0_p1_0)))
 (let (($x933 (<= ?x738 ?x843)))
 (let (($x1408 (and (and $x933 $x827) (and (<= a0_bs1_0 a2_rs1_1) (< a2_rs1_1 a0_bf1_0)))))
 (=> (< a2_rs1_1 a0_rs1_1) (or (or (and (<= ?x843 ?x738) $x827) $x1408 (> a0_rf1_0 a2_rs1_1))))))))))
(assert
 (let (($x1390 (= a2_bs1_1 a2_rs1_1)))
 (let (($x1389 (= a2_bs1_1 a2_rs1_0)))
 (let (($x1388 (= a2_bs1_1 a1_rs1_1)))
 (let (($x1387 (= a2_bs1_1 a1_rs1_0)))
 (let (($x1386 (= a2_bs1_1 a0_rs1_1)))
 (let (($x1385 (= a2_bs1_1 a0_rs1_0)))
 (let (($x1391 (or $x1385 $x1386 $x1387 $x1388 $x1389 $x1390)))
 (=> (and (<= a0_ds1_1 a2_bs1_1) (<= a2_bs1_1 a0_df1_1)) $x1391)))))))))
(assert
 (let (($x1114 (<= a2_rf1_0 a1_rs1_0)))
 (let (($x1115 (<= a1_rf1_0 a2_rs1_0)))
 (or $x1115 $x1114))))
(assert
 (let (($x1122 (<= a2_rf2_0 a1_rs2_0)))
 (let (($x1123 (<= a1_rf2_0 a2_rs2_0)))
 (or $x1123 $x1122))))
(assert
 (= (< a2_rs1_0 a1_rs1_0) (< a2_L a1_L)))
(assert
 (let (($x1324 (= a2_bs1_0 a2_rs1_1)))
 (let (($x1323 (= a2_bs1_0 a2_rs1_0)))
 (let (($x1322 (= a2_bs1_0 a1_rs1_1)))
 (let (($x1321 (= a2_bs1_0 a1_rs1_0)))
 (let (($x1320 (= a2_bs1_0 a0_rs1_1)))
 (let (($x1319 (= a2_bs1_0 a0_rs1_0)))
 (let (($x1325 (or $x1319 $x1320 $x1321 $x1322 $x1323 $x1324)))
 (=> (and (<= a1_ds1_0 a2_bs1_0) (<= a2_bs1_0 a1_df1_0)) $x1325)))))))))
(assert
 (let (($x1215 (<= a2_rf1_0 a1_rs1_1)))
 (let (($x1216 (<= a1_rf1_1 a2_rs1_0)))
 (or $x1216 $x1215))))
(assert
 (let (($x1223 (<= a2_rf2_0 a1_rs2_1)))
 (let (($x1224 (<= a1_rf2_1 a2_rs2_0)))
 (or $x1224 $x1223))))
(assert
 (let (($x1475 (and (and (<= (- a1_L a1_p1_0) a2_L) (<= a1_rf1_0 a2_rs1_0)) (and (<= a1_bs1_0 a2_rs1_0) (< a2_rs1_0 a1_bf1_0)))))
 (let (($x1477 (or (and (<= a2_L (- a1_L a1_p1_0)) (<= a1_rf1_0 a2_rs1_0)) $x1475 (> a1_rf1_0 a2_rs1_0))))
 (=> (< a2_rs1_0 a1_rs1_1) (or $x1477)))))
(assert
 (let (($x1324 (= a2_bs1_0 a2_rs1_1)))
 (let (($x1323 (= a2_bs1_0 a2_rs1_0)))
 (let (($x1322 (= a2_bs1_0 a1_rs1_1)))
 (let (($x1321 (= a2_bs1_0 a1_rs1_0)))
 (let (($x1320 (= a2_bs1_0 a0_rs1_1)))
 (let (($x1319 (= a2_bs1_0 a0_rs1_0)))
 (let (($x1325 (or $x1319 $x1320 $x1321 $x1322 $x1323 $x1324)))
 (=> (and (<= a1_ds1_1 a2_bs1_0) (<= a2_bs1_0 a1_df1_1)) $x1325)))))))))
(assert
 (let (($x1155 (<= a2_rf1_1 a1_rs1_0)))
 (let (($x1156 (<= a1_rf1_0 a2_rs1_1)))
 (or $x1156 $x1155))))
(assert
 (let (($x1163 (<= a2_rf2_1 a1_rs2_0)))
 (let (($x1164 (<= a1_rf2_0 a2_rs2_1)))
 (or $x1164 $x1163))))
(assert
 (let (($x1390 (= a2_bs1_1 a2_rs1_1)))
 (let (($x1389 (= a2_bs1_1 a2_rs1_0)))
 (let (($x1388 (= a2_bs1_1 a1_rs1_1)))
 (let (($x1387 (= a2_bs1_1 a1_rs1_0)))
 (let (($x1386 (= a2_bs1_1 a0_rs1_1)))
 (let (($x1385 (= a2_bs1_1 a0_rs1_0)))
 (let (($x1391 (or $x1385 $x1386 $x1387 $x1388 $x1389 $x1390)))
 (=> (and (<= a1_ds1_0 a2_bs1_1) (<= a2_bs1_1 a1_df1_0)) $x1391)))))))))
(assert
 (let (($x1242 (<= a2_rf1_1 a1_rs1_1)))
 (let (($x1243 (<= a1_rf1_1 a2_rs1_1)))
 (or $x1243 $x1242))))
(assert
 (let (($x1250 (<= a2_rf2_1 a1_rs2_1)))
 (let (($x1251 (<= a1_rf2_1 a2_rs2_1)))
 (or $x1251 $x1250))))
(assert
 (let (($x1156 (<= a1_rf1_0 a2_rs1_1)))
 (let ((?x843 (- a2_L a2_p1_0)))
 (let ((?x641 (- a1_L a1_p1_0)))
 (let (($x1259 (<= ?x641 ?x843)))
 (let (($x1532 (and (and $x1259 $x1156) (and (<= a1_bs1_0 a2_rs1_1) (< a2_rs1_1 a1_bf1_0)))))
 (=> (< a2_rs1_1 a1_rs1_1) (or (or (and (<= ?x843 ?x641) $x1156) $x1532 (> a1_rf1_0 a2_rs1_1))))))))))
(assert
 (let (($x1390 (= a2_bs1_1 a2_rs1_1)))
 (let (($x1389 (= a2_bs1_1 a2_rs1_0)))
 (let (($x1388 (= a2_bs1_1 a1_rs1_1)))
 (let (($x1387 (= a2_bs1_1 a1_rs1_0)))
 (let (($x1386 (= a2_bs1_1 a0_rs1_1)))
 (let (($x1385 (= a2_bs1_1 a0_rs1_0)))
 (let (($x1391 (or $x1385 $x1386 $x1387 $x1388 $x1389 $x1390)))
 (=> (and (<= a1_ds1_1 a2_bs1_1) (<= a2_bs1_1 a1_df1_1)) $x1391)))))))))
(assert
 (or (and (<= a0_rs1_0 a0_ds1_0) (<= a0_ds1_0 a0_rf1_0)) (and (<= a0_rs1_1 a0_ds1_0) (<= a0_ds1_0 a0_rf1_1)) (and (<= a1_rs1_0 a0_ds1_0) (<= a0_ds1_0 a1_rf1_0)) (and (<= a1_rs1_1 a0_ds1_0) (<= a0_ds1_0 a1_rf1_1)) (and (<= a2_rs1_0 a0_ds1_0) (<= a0_ds1_0 a2_rf1_0)) (and (<= a2_rs1_1 a0_ds1_0) (<= a0_ds1_0 a2_rf1_1))))
(assert
 (or (and (<= a0_rs1_0 a0_ds1_1) (<= a0_ds1_1 a0_rf1_0)) (and (<= a0_rs1_1 a0_ds1_1) (<= a0_ds1_1 a0_rf1_1)) (and (<= a1_rs1_0 a0_ds1_1) (<= a0_ds1_1 a1_rf1_0)) (and (<= a1_rs1_1 a0_ds1_1) (<= a0_ds1_1 a1_rf1_1)) (and (<= a2_rs1_0 a0_ds1_1) (<= a0_ds1_1 a2_rf1_0)) (and (<= a2_rs1_1 a0_ds1_1) (<= a0_ds1_1 a2_rf1_1))))
(assert
 (or (and (<= a0_rs1_0 a1_ds1_0) (<= a1_ds1_0 a0_rf1_0)) (and (<= a0_rs1_1 a1_ds1_0) (<= a1_ds1_0 a0_rf1_1)) (and (<= a1_rs1_0 a1_ds1_0) (<= a1_ds1_0 a1_rf1_0)) (and (<= a1_rs1_1 a1_ds1_0) (<= a1_ds1_0 a1_rf1_1)) (and (<= a2_rs1_0 a1_ds1_0) (<= a1_ds1_0 a2_rf1_0)) (and (<= a2_rs1_1 a1_ds1_0) (<= a1_ds1_0 a2_rf1_1))))
(assert
 (or (and (<= a0_rs1_0 a1_ds1_1) (<= a1_ds1_1 a0_rf1_0)) (and (<= a0_rs1_1 a1_ds1_1) (<= a1_ds1_1 a0_rf1_1)) (and (<= a1_rs1_0 a1_ds1_1) (<= a1_ds1_1 a1_rf1_0)) (and (<= a1_rs1_1 a1_ds1_1) (<= a1_ds1_1 a1_rf1_1)) (and (<= a2_rs1_0 a1_ds1_1) (<= a1_ds1_1 a2_rf1_0)) (and (<= a2_rs1_1 a1_ds1_1) (<= a1_ds1_1 a2_rf1_1))))
(assert
 (or (and (<= a0_rs1_0 a2_ds1_0) (<= a2_ds1_0 a0_rf1_0)) (and (<= a0_rs1_1 a2_ds1_0) (<= a2_ds1_0 a0_rf1_1)) (and (<= a1_rs1_0 a2_ds1_0) (<= a2_ds1_0 a1_rf1_0)) (and (<= a1_rs1_1 a2_ds1_0) (<= a2_ds1_0 a1_rf1_1)) (and (<= a2_rs1_0 a2_ds1_0) (<= a2_ds1_0 a2_rf1_0)) (and (<= a2_rs1_1 a2_ds1_0) (<= a2_ds1_0 a2_rf1_1))))
(assert
 (or (and (<= a0_rs1_0 a2_ds1_1) (<= a2_ds1_1 a0_rf1_0)) (and (<= a0_rs1_1 a2_ds1_1) (<= a2_ds1_1 a0_rf1_1)) (and (<= a1_rs1_0 a2_ds1_1) (<= a2_ds1_1 a1_rf1_0)) (and (<= a1_rs1_1 a2_ds1_1) (<= a2_ds1_1 a1_rf1_1)) (and (<= a2_rs1_0 a2_ds1_1) (<= a2_ds1_1 a2_rf1_0)) (and (<= a2_rs1_1 a2_ds1_1) (<= a2_ds1_1 a2_rf1_1))))
(assert
 (>= (+ a0_bf1_1 a1_bf1_1 a2_bf1_1) (* (/ 29.0 10.0) (+ a0_bf2_1 a1_bf2_1 a2_bf2_1))))
(check-sat)
